InboundTrucks  = 8;
OutboundTrucks = 5;
InboundDoors   = 4;
OutboundDoors  = 4;
ReleaseTime    = [81,14,3,94,35,31,28,17];
UnloadTime     = [16,44,15,37,12,11,15,23];
LoadTime       = [12,21,24,5,22];
TransferTime   = [| 0,0,36,24,38 | 47,27,10,20,0 | 31,27,19,0,31 | 0,0,34,0,32 | 32,48,26,12,39 | 44,0,34,15,45 | 28,0,49,33,0 | 22,14,12,24,28 |];
